certificates/rado_a11_c290_N31.cnf
c Rad2 upper bound instance: x1 + 11*x2 - x3 = 290, interval [1,31]
p cnf 31 174
1 8 27 0
-1 -8 -27 0
1 19 28 0
-1 -19 -28 0
1 29 30 0
-1 -29 -30 0
2 9 27 0
-2 -9 -27 0
2 20 28 0
-2 -20 -28 0
2 29 31 0
-2 -29 -31 0
3 10 27 0
-3 -10 -27 0
3 21 28 0
-3 -21 -28 0
4 11 27 0
-4 -11 -27 0
4 22 28 0
-4 -22 -28 0
1 5 26 0
-1 -5 -26 0
5 12 27 0
-5 -12 -27 0
5 23 28 0
-5 -23 -28 0
2 6 26 0
-2 -6 -26 0
6 13 27 0
-6 -13 -27 0
6 24 28 0
-6 -24 -28 0
3 7 26 0
-3 -7 -26 0
7 14 27 0
-7 -14 -27 0
7 25 28 0
-7 -25 -28 0
4 8 26 0
-4 -8 -26 0
8 15 27 0
-8 -15 -27 0
8 26 28 0
-8 -26 -28 0
5 9 26 0
-5 -9 -26 0
9 16 27 0
-9 -16 -27 0
9 27 28 0
-9 -27 -28 0
6 10 26 0
-6 -10 -26 0
10 17 27 0
-10 -17 -27 0
10 28 0
-10 -28 0
7 11 26 0
-7 -11 -26 0
11 18 27 0
-11 -18 -27 0
11 28 29 0
-11 -28 -29 0
8 12 26 0
-8 -12 -26 0
12 19 27 0
-12 -19 -27 0
12 28 30 0
-12 -28 -30 0
9 13 26 0
-9 -13 -26 0
13 20 27 0
-13 -20 -27 0
13 28 31 0
-13 -28 -31 0
10 14 26 0
-10 -14 -26 0
14 21 27 0
-14 -21 -27 0
11 15 26 0
-11 -15 -26 0
15 22 27 0
-15 -22 -27 0
1 16 25 0
-1 -16 -25 0
12 16 26 0
-12 -16 -26 0
16 23 27 0
-16 -23 -27 0
2 17 25 0
-2 -17 -25 0
13 17 26 0
-13 -17 -26 0
17 24 27 0
-17 -24 -27 0
3 18 25 0
-3 -18 -25 0
14 18 26 0
-14 -18 -26 0
18 25 27 0
-18 -25 -27 0
4 19 25 0
-4 -19 -25 0
15 19 26 0
-15 -19 -26 0
19 26 27 0
-19 -26 -27 0
5 20 25 0
-5 -20 -25 0
16 20 26 0
-16 -20 -26 0
20 27 0
-20 -27 0
6 21 25 0
-6 -21 -25 0
17 21 26 0
-17 -21 -26 0
21 27 28 0
-21 -27 -28 0
7 22 25 0
-7 -22 -25 0
18 22 26 0
-18 -22 -26 0
22 27 29 0
-22 -27 -29 0
8 23 25 0
-8 -23 -25 0
19 23 26 0
-19 -23 -26 0
23 27 30 0
-23 -27 -30 0
9 24 25 0
-9 -24 -25 0
20 24 26 0
-20 -24 -26 0
24 27 31 0
-24 -27 -31 0
10 25 0
-10 -25 0
21 25 26 0
-21 -25 -26 0
11 25 26 0
-11 -25 -26 0
22 26 0
-22 -26 0
1 24 27 0
-1 -24 -27 0
12 25 27 0
-12 -25 -27 0
23 26 27 0
-23 -26 -27 0
2 24 28 0
-2 -24 -28 0
13 25 28 0
-13 -25 -28 0
24 26 28 0
-24 -26 -28 0
3 24 29 0
-3 -24 -29 0
14 25 29 0
-14 -25 -29 0
25 26 29 0
-25 -26 -29 0
4 24 30 0
-4 -24 -30 0
15 25 30 0
-15 -25 -30 0
26 30 0
-26 -30 0
5 24 31 0
-5 -24 -31 0
16 25 31 0
-16 -25 -31 0
26 27 31 0
-26 -27 -31 0
