certificates/rado_a11_c290_N31.drat
-29 -30 -31 0
-30 -31 0
d -29 -30 -31 0
-31 0
25 30 0
30 0
-26 0
22 0
27 0
-20 0
-29 0
-23 0
-15 0
16 0
24 0
2 0
25 0
19 0
11 0
-1 0
-9 0
-17 0
-28 0
-4 0
-10 0
-7 0
-18 0
-12 0
5 0
13 0
21 0
0
